# Solution for model r3_t9_m0_4
# Finished Task: 5 / 9
# Makespan: 500.0, Total Distance: 178.0, Total Time: 0.3417
# R O S F
0 0 3 233.0 233.0
1 1 9 224.0 224.0
2 2 -1 191.0 191.0
3 0 8 310.0 339.0
4 -1 -1 500.0 525.0
5 1 -1 464.0 495.0
6 -1 -1 495.0 524.0
7 0 -1 466.0 500.0
8 0 7 384.0 415.0
9 1 5 415.0 444.0
10 -1 -1 525.0 557.0
11 -1 -1 524.0 559.0
